(set-logic BV) (define-fun origCir ((n386 Bool) (n389 Bool) (n392 Bool) (n385 Bool) (n387 Bool) (i_7 Bool)) Bool (and (and (and n392 (xor n385 n387)) (xor n389 n386)) i_7)) (synth-fun skel ((n386 Bool) (n389 Bool) (n392 Bool) (n385 Bool) (n387 Bool) (i_7 Bool)) Bool) (declare-var n386 Bool) (declare-var n389 Bool) (declare-var n392 Bool) (declare-var n385 Bool) (declare-var n387 Bool) (declare-var i_7 Bool) (constraint (= (origCir n386 n389 n392 n385 n387 i_7) (skel n386 n389 n392 n385 n387 i_7))) (check-synth)
